
Gurobi 11.0.0 (linux64) logging started Fri Apr 12 22:44:25 2024

Set parameter LogFile to value "/lustre1/scratch/348/vsc34888/JointResearch/05.Models/06.Benchmarking/K.Investments_per_hour/9n_ByStages_nc80/openStarNet_9n_ByStages_nc80.log"
Set parameter Method to value 2
Set parameter MIPFocus to value 1
Set parameter Presolve to value 2
Set parameter RINS to value 100
Set parameter MIPGap to value 0.01
Set parameter Threads to value 36
Set parameter TimeLimit to value 259200
Set parameter IterationLimit to value 760000000
Gurobi Optimizer version 11.0.0 build v11.0.0rc2 (linux64 - "Rocky Linux 8.8 (Green Obsidian)")

CPU model: Intel(R) Xeon(R) Gold 6140 CPU @ 2.30GHz, instruction set [SSE2|AVX|AVX2|AVX512]
Thread count: 36 physical cores, 36 logical processors, using up to 36 threads

Optimize a model with 20963 rows, 11024 columns and 63060 nonzeros
Model fingerprint: 0x0a1ec3cc
Variable types: 10988 continuous, 36 integer (36 binary)
Coefficient statistics:
  Matrix range     [8e-04, 7e+02]
  Objective range  [1e+00, 1e+00]
  Bounds range     [8e-04, 2e+00]
  RHS range        [8e-04, 1e+00]
Presolve removed 7123 rows and 3764 columns
Presolve time: 0.08s
Presolved: 13840 rows, 7260 columns, 47224 nonzeros
Variable types: 7224 continuous, 36 integer (36 binary)
Found heuristic solution: objective 964.6638332
Root relaxation presolved: 13840 rows, 7260 columns, 47224 nonzeros

Root barrier log...

Ordering time: 0.01s

Barrier statistics:
 Dense cols : 36
 AA' NZ     : 1.639e+05
 Factor NZ  : 3.242e+05 (roughly 11 MB of memory)
 Factor Ops : 1.080e+07 (less than 1 second per iteration)
 Threads    : 36

                  Objective                Residual
Iter       Primal          Dual         Primal    Dual     Compl     Time
   0   4.94152642e+05 -2.15958912e+07  7.30e+00 1.49e+02  3.14e+03     0s
   1   7.98455900e+04 -8.83253904e+06  1.05e+00 4.74e-10  4.89e+02     0s
   2   1.41181774e+04 -1.61498808e+06  2.68e-02 2.24e-09  6.18e+01     0s
   3   5.07596227e+03 -3.68383737e+04  5.06e-14 4.11e-11  1.55e+00     0s
   4   1.36714486e+03 -1.09154988e+04  6.39e-14 1.12e-11  4.55e-01     0s
   5   7.78625739e+02 -4.81913051e+03  7.28e-14 4.98e-12  2.07e-01     0s
   6   5.88511405e+02 -1.90602891e+03  1.36e-13 2.02e-12  9.24e-02     0s
   7   4.12397985e+02 -6.70085454e+02  2.83e-13 8.46e-13  4.01e-02     1s
   8   2.58855324e+02 -1.94446762e+02  2.32e-13 9.09e-13  1.68e-02     1s
   9   1.71613452e+02  5.79827034e+00  7.36e-13 9.09e-13  6.14e-03     1s
  10   1.30566914e+02  6.75136640e+01  3.47e-13 9.09e-13  2.34e-03     1s
  11   1.13757887e+02  8.82248451e+01  1.83e-12 4.55e-13  9.46e-04     1s
  12   1.07911696e+02  9.30289361e+01  1.40e-12 4.55e-13  5.51e-04     1s
  13   1.04783006e+02  9.53793480e+01  1.25e-12 4.55e-13  3.48e-04     1s
  14   1.04290601e+02  9.75458668e+01  2.19e-12 9.09e-13  2.50e-04     1s
  15   1.03377825e+02  9.84478043e+01  6.17e-12 4.55e-13  1.83e-04     1s
  16   1.02526491e+02  1.01554524e+02  1.89e-11 9.09e-13  3.60e-05     1s
  17   1.02429308e+02  1.02112027e+02  9.02e-11 4.55e-13  1.18e-05     1s
  18   1.02409139e+02  1.02394077e+02  5.78e-12 4.55e-13  5.58e-07     1s
  19   1.02404614e+02  1.02404598e+02  5.09e-09 9.09e-13  5.83e-10     1s
  20   1.02404609e+02  1.02404609e+02  8.28e-11 4.55e-13  5.83e-13     1s

Barrier solved model in 20 iterations and 0.79 seconds (0.27 work units)
Optimal objective 1.02404609e+02


Root relaxation: objective 1.024046e+02, 817 iterations, 0.79 seconds (0.17 work units)

    Nodes    |    Current Node    |     Objective Bounds      |     Work
 Expl Unexpl |  Obj  Depth IntInf | Incumbent    BestBd   Gap | It/Node Time

     0     0  102.40461    0    5  964.66383  102.40461  89.4%     -    0s
H    0     0                     814.9472323  102.40461  87.4%     -    1s
H    0     0                     814.7787746  110.02991  86.5%     -    1s
     0     0  110.02991    0    1  814.77877  110.02991  86.5%     -    1s
H    0     0                     111.0084452  110.02991  0.88%     -    1s

Cutting planes:
  MIR: 50
  RLT: 1
  Relax-and-lift: 23

Explored 1 nodes (1062 simplex iterations) in 1.79 seconds (0.42 work units)
Thread count was 36 (of 36 available processors)

Solution count 4: 111.008 814.779 814.947 964.664 

Optimal solution found (tolerance 1.00e-02)
Best objective 1.110084451843e+02, best bound 1.100299056733e+02, gap 0.8815%

Gurobi 11.0.0 (linux64) logging started Fri Apr 12 22:44:30 2024

Set parameter LogFile to value "/lustre1/scratch/348/vsc34888/JointResearch/05.Models/06.Benchmarking/K.Investments_per_hour/9n_ByStages_nc80/openStarNet_9n_ByStages_nc80.log"
Set parameter Method to value 2
Set parameter MIPFocus to value 1
Set parameter Presolve to value 2
Set parameter RINS to value 100
Set parameter MIPGap to value 0.01
Set parameter Threads to value 36
Set parameter TimeLimit to value 259200
Set parameter IterationLimit to value 760000000
Gurobi Optimizer version 11.0.0 build v11.0.0rc2 (linux64 - "Rocky Linux 8.8 (Green Obsidian)")

CPU model: Intel(R) Xeon(R) Gold 6140 CPU @ 2.30GHz, instruction set [SSE2|AVX|AVX2|AVX512]
Thread count: 36 physical cores, 36 logical processors, using up to 36 threads

Optimize a model with 20963 rows, 10988 columns and 51504 nonzeros
Model fingerprint: 0x4f7edae7
Coefficient statistics:
  Matrix range     [8e-04, 7e+02]
  Objective range  [1e+00, 1e+00]
  Bounds range     [8e-04, 2e+00]
  RHS range        [8e-04, 2e+01]
Presolve removed 19043 rows and 7330 columns
Presolve time: 0.02s
Presolved: 1920 rows, 3693 columns, 8405 nonzeros

Ordering time: 0.00s

Barrier statistics:
 AA' NZ     : 4.437e+03
 Factor NZ  : 1.572e+04 (roughly 2 MB of memory)
 Factor Ops : 1.555e+05 (less than 1 second per iteration)
 Threads    : 1

                  Objective                Residual
Iter       Primal          Dual         Primal    Dual     Compl     Time
   0   3.60158752e+05 -4.01109023e+06  5.54e+00 2.08e+02  2.37e+03     0s
   1   4.50097640e+04 -2.03866562e+06  5.28e-01 2.73e-12  3.61e+02     0s
   2   1.03552186e+04 -2.79445494e+05  1.07e-02 1.57e-12  3.47e+01     0s
   3   3.46355475e+03 -1.24031618e+04  2.16e-15 1.18e-11  1.86e+00     0s
   4   9.33138538e+02 -2.21223509e+03  1.17e-15 2.16e-12  3.69e-01     0s
   5   6.21280388e+02 -4.85147639e+02  1.08e-15 9.09e-13  1.30e-01     0s
   6   3.76485859e+02 -1.86437838e+02  1.53e-15 9.09e-13  6.61e-02     0s
   7   2.26481518e+02 -3.44253393e+00  3.66e-15 9.09e-13  2.70e-02     0s
   8   1.62398788e+02  6.20998595e+01  6.61e-15 4.55e-13  1.18e-02     0s
   9   1.27293543e+02  9.80586260e+01  1.51e-14 9.09e-13  3.43e-03     0s
  10   1.16234023e+02  1.06891904e+02  9.33e-15 4.55e-13  1.10e-03     0s
  11   1.13532650e+02  1.10221165e+02  1.15e-14 4.55e-13  3.89e-04     0s
  12   1.11965120e+02  1.10793926e+02  3.05e-14 9.09e-13  1.38e-04     0s
  13   1.11287806e+02  1.10958467e+02  8.33e-14 9.09e-13  3.87e-05     0s
  14   1.11086289e+02  1.10993591e+02  3.21e-12 4.55e-13  1.09e-05     0s
  15   1.11018464e+02  1.11005325e+02  4.40e-11 4.55e-13  1.54e-06     0s
  16   1.11008475e+02  1.11008377e+02  1.14e-11 9.09e-13  1.16e-08     0s
  17   1.11008445e+02  1.11008445e+02  3.80e-10 9.09e-13  1.87e-11     0s

Barrier solved model in 17 iterations and 0.04 seconds (0.04 work units)
Optimal objective 1.11008445e+02

Crossover log...

     922 DPushes remaining with DInf 0.0000000e+00                 0s
       0 DPushes remaining with DInf 0.0000000e+00                 0s

      20 PPushes remaining with PInf 0.0000000e+00                 0s
       0 PPushes remaining with PInf 0.0000000e+00                 0s

  Push phase complete: Pinf 0.0000000e+00, Dinf 5.0468744e-14      0s

Iteration    Objective       Primal Inf.    Dual Inf.      Time
      85    1.1100845e+02   0.000000e+00   0.000000e+00      0s

Solved in 85 iterations and 0.06 seconds (0.05 work units)
Optimal objective  1.110084452e+02
